p cnf 289 1
289 0
w 1 0.874496
w 2 1 0
w 2 -1 1
w 3 2 1
w 3 -2 0
w 4 3 0
w 4 -3 1
w 5 4 0
w 5 -4 1
w 6 5 0.721217
w 6 -5 0.0258399
w 7 6 1
w 7 -6 0
w 8 7 1
w 8 -7 0
w 9 8 0.0563054
w 9 -8 0.745462
w 10 9 0.627153
w 10 -9 0.158415
w 11 10 0.34023
w 11 -10 0.137766
w 12 11 0.971346
w 12 -11 0.695513
w 13 12 0.356894
w 13 -12 0.219119
w 14 13 1
w 14 -13 0
w 15 14 0
w 15 -14 1
w 16 15 1
w 16 -15 0
w 17 16 0
w 17 -16 1
w 18 1 0.821115
w 18 -1 0.152255
w 19 18 2 0.824829
w 19 18 -2 0.593141
w 19 -18 2 0.768257
w 19 -18 -2 0.865575
w 20 19 3 1
w 20 19 -3 1
w 20 -19 3 0
w 20 -19 -3 1
w 21 20 4 0.711669
w 21 20 -4 0.791946
w 21 -20 4 0.907218
w 21 -20 -4 0.704414
w 22 21 5 0.602731
w 22 21 -5 0.313973
w 22 -21 5 0.120185
w 22 -21 -5 0.82185
w 23 22 6 0.639986
w 23 22 -6 0.862298
w 23 -22 6 0.380787
w 23 -22 -6 0.0285932
w 24 23 7 0.689754
w 24 23 -7 0.459632
w 24 -23 7 0.605339
w 24 -23 -7 0.510869
w 25 24 8 0.257796
w 25 24 -8 0.335698
w 25 -24 8 0.205029
w 25 -24 -8 0.0260529
w 26 25 9 0
w 26 25 -9 1
w 26 -25 9 1
w 26 -25 -9 1
w 27 26 10 0.046021
w 27 26 -10 0.0942759
w 27 -26 10 0.48898
w 27 -26 -10 0.750435
w 28 27 11 0.0917112
w 28 27 -11 0.0644077
w 28 -27 11 0.977752
w 28 -27 -11 0.913562
w 29 28 12 0.617738
w 29 28 -12 0.775859
w 29 -28 12 0.243222
w 29 -28 -12 0.646331
w 30 29 13 0.932976
w 30 29 -13 0.105963
w 30 -29 13 0.359921
w 30 -29 -13 0.443845
w 31 30 14 0.617717
w 31 30 -14 0.779543
w 31 -30 14 0.922879
w 31 -30 -14 0.64377
w 32 31 15 0.234679
w 32 31 -15 0.494385
w 32 -31 15 0.793126
w 32 -31 -15 0.569031
w 33 32 16 0.374888
w 33 32 -16 0.615052
w 33 -32 16 0.890991
w 33 -32 -16 0.863868
w 34 33 17 0
w 34 33 -17 0
w 34 -33 17 1
w 34 -33 -17 1
w 35 18 0.292329
w 35 -18 0.344049
w 36 35 19 0.535551
w 36 35 -19 0.99038
w 36 -35 19 0.399582
w 36 -35 -19 0.468527
w 37 36 20 1
w 37 36 -20 0
w 37 -36 20 0
w 37 -36 -20 0
w 38 37 21 0.737072
w 38 37 -21 0.0209905
w 38 -37 21 0.672732
w 38 -37 -21 0.971751
w 39 38 22 0.465858
w 39 38 -22 0.540782
w 39 -38 22 0.312091
w 39 -38 -22 0.840746
w 40 39 23 1
w 40 39 -23 0
w 40 -39 23 1
w 40 -39 -23 1
w 41 40 24 0.951215
w 41 40 -24 0.677951
w 41 -40 24 0.529334
w 41 -40 -24 0.243544
w 42 41 25 0
w 42 41 -25 1
w 42 -41 25 0
w 42 -41 -25 1
w 43 42 26 1
w 43 42 -26 0
w 43 -42 26 0
w 43 -42 -26 1
w 44 43 27 0.851911
w 44 43 -27 0.659988
w 44 -43 27 0.73163
w 44 -43 -27 0.524643
w 45 44 28 0.247006
w 45 44 -28 0.990501
w 45 -44 28 0.17252
w 45 -44 -28 0.559097
w 46 45 29 0.328354
w 46 45 -29 0.762179
w 46 -45 29 0.535861
w 46 -45 -29 0.849674
w 47 46 30 0.196055
w 47 46 -30 0.800889
w 47 -46 30 0.391771
w 47 -46 -30 0.725389
w 48 47 31 0
w 48 47 -31 1
w 48 -47 31 1
w 48 -47 -31 0
w 49 48 32 1
w 49 48 -32 1
w 49 -48 32 0
w 49 -48 -32 1
w 50 49 33 0.0830587
w 50 49 -33 0.117779
w 50 -49 33 0.249329
w 50 -49 -33 0.607702
w 51 50 34 0.496335
w 51 50 -34 0.598203
w 51 -50 34 0.922038
w 51 -50 -34 0.0554321
w 52 35 1
w 52 -35 0
w 53 52 36 0.965312
w 53 52 -36 0.100066
w 53 -52 36 0.531431
w 53 -52 -36 0.161366
w 54 53 37 0.923202
w 54 53 -37 0.886755
w 54 -53 37 0.945387
w 54 -53 -37 0.336974
w 55 54 38 0.768916
w 55 54 -38 0.763125
w 55 -54 38 0.260118
w 55 -54 -38 0.840068
w 56 55 39 0
w 56 55 -39 1
w 56 -55 39 0
w 56 -55 -39 1
w 57 56 40 1
w 57 56 -40 0
w 57 -56 40 1
w 57 -56 -40 1
w 58 57 41 0
w 58 57 -41 1
w 58 -57 41 1
w 58 -57 -41 1
w 59 58 42 0
w 59 58 -42 1
w 59 -58 42 1
w 59 -58 -42 0
w 60 59 43 0.658218
w 60 59 -43 0.803062
w 60 -59 43 0.741923
w 60 -59 -43 0.995191
w 61 60 44 0.510839
w 61 60 -44 0.758317
w 61 -60 44 0.849659
w 61 -60 -44 0.350907
w 62 61 45 1
w 62 61 -45 0
w 62 -61 45 0
w 62 -61 -45 1
w 63 62 46 0.685675
w 63 62 -46 0.335919
w 63 -62 46 0.338372
w 63 -62 -46 0.308761
w 64 63 47 0.698551
w 64 63 -47 0.853885
w 64 -63 47 0.0524332
w 64 -63 -47 0.48818
w 65 64 48 0.256018
w 65 64 -48 0.243121
w 65 -64 48 0.544981
w 65 -64 -48 0.991033
w 66 65 49 0
w 66 65 -49 1
w 66 -65 49 1
w 66 -65 -49 1
w 67 66 50 0.552031
w 67 66 -50 0.594279
w 67 -66 50 0.402759
w 67 -66 -50 0.40169
w 68 67 51 0.459075
w 68 67 -51 0.318527
w 68 -67 51 0.367308
w 68 -67 -51 0.271181
w 69 52 0.943704
w 69 -52 0.956856
w 70 69 53 1
w 70 69 -53 1
w 70 -69 53 0
w 70 -69 -53 0
w 71 70 54 1
w 71 70 -54 1
w 71 -70 54 0
w 71 -70 -54 0
w 72 71 55 0.313883
w 72 71 -55 0.122103
w 72 -71 55 0.871355
w 72 -71 -55 0.6554
w 73 72 56 0.833845
w 73 72 -56 0.738839
w 73 -72 56 0.415796
w 73 -72 -56 0.385876
w 74 73 57 1
w 74 73 -57 0
w 74 -73 57 0
w 74 -73 -57 0
w 75 74 58 1
w 75 74 -58 1
w 75 -74 58 0
w 75 -74 -58 0
w 76 75 59 0.0824924
w 76 75 -59 0.871391
w 76 -75 59 0.771284
w 76 -75 -59 0.905112
w 77 76 60 0.890786
w 77 76 -60 0.780164
w 77 -76 60 0.320824
w 77 -76 -60 0.659688
w 78 77 61 0.0327506
w 78 77 -61 0.973571
w 78 -77 61 0.0333366
w 78 -77 -61 0.904105
w 79 78 62 0.80469
w 79 78 -62 0.73795
w 79 -78 62 0.367811
w 79 -78 -62 0.220486
w 80 79 63 1
w 80 79 -63 0
w 80 -79 63 1
w 80 -79 -63 1
w 81 80 64 1
w 81 80 -64 0
w 81 -80 64 1
w 81 -80 -64 1
w 82 81 65 0
w 82 81 -65 0
w 82 -81 65 1
w 82 -81 -65 1
w 83 82 66 0.937568
w 83 82 -66 0.0332194
w 83 -82 66 0.711588
w 83 -82 -66 0.258392
w 84 83 67 0.622822
w 84 83 -67 0.291143
w 84 -83 67 0.666479
w 84 -83 -67 0.656158
w 85 84 68 1
w 85 84 -68 0
w 85 -84 68 0
w 85 -84 -68 1
w 86 69 0.0570252
w 86 -69 0.36419
w 87 86 70 0.968418
w 87 86 -70 0.343422
w 87 -86 70 0.037046
w 87 -86 -70 0.985905
w 88 87 71 0.902528
w 88 87 -71 0.929725
w 88 -87 71 0.182426
w 88 -87 -71 0.273677
w 89 88 72 0.267977
w 89 88 -72 0.41611
w 89 -88 72 0.887462
w 89 -88 -72 0.205546
w 90 89 73 0
w 90 89 -73 0
w 90 -89 73 1
w 90 -89 -73 1
w 91 90 74 0.808716
w 91 90 -74 0.878029
w 91 -90 74 0.950329
w 91 -90 -74 0.104166
w 92 91 75 0
w 92 91 -75 0
w 92 -91 75 0
w 92 -91 -75 1
w 93 92 76 1
w 93 92 -76 1
w 93 -92 76 0
w 93 -92 -76 0
w 94 93 77 0.443305
w 94 93 -77 0.680161
w 94 -93 77 0.824601
w 94 -93 -77 0.625732
w 95 94 78 0.780639
w 95 94 -78 0.893709
w 95 -94 78 0.369947
w 95 -94 -78 0.668101
w 96 95 79 0
w 96 95 -79 1
w 96 -95 79 0
w 96 -95 -79 1
w 97 96 80 0
w 97 96 -80 0
w 97 -96 80 1
w 97 -96 -80 0
w 98 97 81 0.705929
w 98 97 -81 0.152129
w 98 -97 81 0.641821
w 98 -97 -81 0.726141
w 99 98 82 1
w 99 98 -82 1
w 99 -98 82 0
w 99 -98 -82 1
w 100 99 83 1
w 100 99 -83 0
w 100 -99 83 0
w 100 -99 -83 0
w 101 100 84 1
w 101 100 -84 1
w 101 -100 84 0
w 101 -100 -84 1
w 102 101 85 0
w 102 101 -85 1
w 102 -101 85 1
w 102 -101 -85 0
w 103 86 1
w 103 -86 0
w 104 103 87 1
w 104 103 -87 0
w 104 -103 87 1
w 104 -103 -87 0
w 105 104 88 0.612674
w 105 104 -88 0.315542
w 105 -104 88 0.72516
w 105 -104 -88 0.705355
w 106 105 89 0
w 106 105 -89 0
w 106 -105 89 1
w 106 -105 -89 1
w 107 106 90 0.0292367
w 107 106 -90 0.360772
w 107 -106 90 0.324663
w 107 -106 -90 0.34675
w 108 107 91 1
w 108 107 -91 0
w 108 -107 91 0
w 108 -107 -91 1
w 109 108 92 0.555024
w 109 108 -92 0.433316
w 109 -108 92 0.742118
w 109 -108 -92 0.584121
w 110 109 93 1
w 110 109 -93 0
w 110 -109 93 1
w 110 -109 -93 1
w 111 110 94 0.00727875
w 111 110 -94 0.372709
w 111 -110 94 0.376625
w 111 -110 -94 0.712633
w 112 111 95 0
w 112 111 -95 0
w 112 -111 95 0
w 112 -111 -95 1
w 113 112 96 1
w 113 112 -96 0
w 113 -112 96 1
w 113 -112 -96 1
w 114 113 97 1
w 114 113 -97 1
w 114 -113 97 1
w 114 -113 -97 0
w 115 114 98 0.343668
w 115 114 -98 0.231253
w 115 -114 98 0.963235
w 115 -114 -98 0.277728
w 116 115 99 0.615681
w 116 115 -99 0.672333
w 116 -115 99 0.671867
w 116 -115 -99 0.267146
w 117 116 100 0.0445765
w 117 116 -100 0.643771
w 117 -116 100 0.392246
w 117 -116 -100 0.506265
w 118 117 101 0
w 118 117 -101 1
w 118 -117 101 0
w 118 -117 -101 0
w 119 118 102 1
w 119 118 -102 1
w 119 -118 102 0
w 119 -118 -102 0
w 120 103 0
w 120 -103 1
w 121 120 104 0
w 121 120 -104 1
w 121 -120 104 1
w 121 -120 -104 1
w 122 121 105 0.157742
w 122 121 -105 0.0948411
w 122 -121 105 0.264969
w 122 -121 -105 0.772442
w 123 122 106 0.937303
w 123 122 -106 0.444309
w 123 -122 106 0.977668
w 123 -122 -106 0.616915
w 124 123 107 1
w 124 123 -107 1
w 124 -123 107 0
w 124 -123 -107 0
w 125 124 108 0.30056
w 125 124 -108 0.0507714
w 125 -124 108 0.656106
w 125 -124 -108 0.434351
w 126 125 109 0.839002
w 126 125 -109 0.743272
w 126 -125 109 0.820604
w 126 -125 -109 0.196165
w 127 126 110 0.0999625
w 127 126 -110 0.723892
w 127 -126 110 0.428869
w 127 -126 -110 0.0264521
w 128 127 111 0.41611
w 128 127 -111 0.184194
w 128 -127 111 0.950339
w 128 -127 -111 0.681079
w 129 128 112 0.660861
w 129 128 -112 0.618382
w 129 -128 112 0.400945
w 129 -128 -112 0.638529
w 130 129 113 1
w 130 129 -113 0
w 130 -129 113 0
w 130 -129 -113 1
w 131 130 114 0
w 131 130 -114 0
w 131 -130 114 0
w 131 -130 -114 1
w 132 131 115 0.777818
w 132 131 -115 0.560612
w 132 -131 115 0.363164
w 132 -131 -115 0.598423
w 133 132 116 0.14846
w 133 132 -116 0.698385
w 133 -132 116 0.480669
w 133 -132 -116 0.577329
w 134 133 117 0.336168
w 134 133 -117 0.993438
w 134 -133 117 0.909032
w 134 -133 -117 0.286507
w 135 134 118 0.865668
w 135 134 -118 0.947368
w 135 -134 118 0.292899
w 135 -134 -118 0.266612
w 136 135 119 0.528196
w 136 135 -119 0.156442
w 136 -135 119 0.845867
w 136 -135 -119 0.772653
w 137 120 1
w 137 -120 0
w 138 137 121 0.226964
w 138 137 -121 0.0840233
w 138 -137 121 0.559767
w 138 -137 -121 0.846856
w 139 138 122 0.120379
w 139 138 -122 0.210021
w 139 -138 122 0.460264
w 139 -138 -122 0.877157
w 140 139 123 0
w 140 139 -123 1
w 140 -139 123 0
w 140 -139 -123 1
w 141 140 124 0.929247
w 141 140 -124 0.792518
w 141 -140 124 0.980501
w 141 -140 -124 0.603764
w 142 141 125 0.927869
w 142 141 -125 0.896664
w 142 -141 125 0.924798
w 142 -141 -125 0.513767
w 143 142 126 0
w 143 142 -126 1
w 143 -142 126 0
w 143 -142 -126 0
w 144 143 127 1
w 144 143 -127 0
w 144 -143 127 1
w 144 -143 -127 0
w 145 144 128 0
w 145 144 -128 0
w 145 -144 128 1
w 145 -144 -128 0
w 146 145 129 0.764985
w 146 145 -129 0.863971
w 146 -145 129 0.950799
w 146 -145 -129 0.700793
w 147 146 130 0.644793
w 147 146 -130 0.630041
w 147 -146 130 0.539975
w 147 -146 -130 0.625294
w 148 147 131 0
w 148 147 -131 0
w 148 -147 131 0
w 148 -147 -131 1
w 149 148 132 0
w 149 148 -132 1
w 149 -148 132 1
w 149 -148 -132 0
w 150 149 133 1
w 150 149 -133 0
w 150 -149 133 0
w 150 -149 -133 1
w 151 150 134 0
w 151 150 -134 1
w 151 -150 134 0
w 151 -150 -134 1
w 152 151 135 1
w 152 151 -135 1
w 152 -151 135 1
w 152 -151 -135 0
w 153 152 136 0.670778
w 153 152 -136 0.288331
w 153 -152 136 0.375297
w 153 -152 -136 0.210753
w 154 137 0.609102
w 154 -137 0.408914
w 155 154 138 1
w 155 154 -138 1
w 155 -154 138 0
w 155 -154 -138 1
w 156 155 139 0.960282
w 156 155 -139 0.0477405
w 156 -155 139 0.0629335
w 156 -155 -139 0.686038
w 157 156 140 0.739423
w 157 156 -140 0.795009
w 157 -156 140 0.220201
w 157 -156 -140 0.612397
w 158 157 141 0
w 158 157 -141 1
w 158 -157 141 0
w 158 -157 -141 1
w 159 158 142 0.13171
w 159 158 -142 0.656243
w 159 -158 142 0.681593
w 159 -158 -142 0.802488
w 160 159 143 0.0568897
w 160 159 -143 0.0132406
w 160 -159 143 0.858199
w 160 -159 -143 0.665991
w 161 160 144 0
w 161 160 -144 1
w 161 -160 144 0
w 161 -160 -144 0
w 162 161 145 0.690098
w 162 161 -145 0.818987
w 162 -161 145 0.748201
w 162 -161 -145 0.753031
w 163 162 146 0.584453
w 163 162 -146 0.492454
w 163 -162 146 0.300034
w 163 -162 -146 0.804655
w 164 163 147 0
w 164 163 -147 1
w 164 -163 147 0
w 164 -163 -147 0
w 165 164 148 0.789171
w 165 164 -148 0.793569
w 165 -164 148 0.614657
w 165 -164 -148 0.591658
w 166 165 149 0.671546
w 166 165 -149 0.604899
w 166 -165 149 0.596342
w 166 -165 -149 0.337538
w 167 166 150 1
w 167 166 -150 0
w 167 -166 150 0
w 167 -166 -150 1
w 168 167 151 1
w 168 167 -151 0
w 168 -167 151 1
w 168 -167 -151 1
w 169 168 152 0
w 169 168 -152 0
w 169 -168 152 0
w 169 -168 -152 1
w 170 169 153 1
w 170 169 -153 1
w 170 -169 153 0
w 170 -169 -153 1
w 171 154 0.951304
w 171 -154 0.299786
w 172 171 155 0.565961
w 172 171 -155 0.891444
w 172 -171 155 0.374528
w 172 -171 -155 0.237507
w 173 172 156 0
w 173 172 -156 1
w 173 -172 156 1
w 173 -172 -156 1
w 174 173 157 1
w 174 173 -157 0
w 174 -173 157 1
w 174 -173 -157 0
w 175 174 158 0
w 175 174 -158 0
w 175 -174 158 0
w 175 -174 -158 1
w 176 175 159 0.779387
w 176 175 -159 0.310548
w 176 -175 159 0.538039
w 176 -175 -159 0.632541
w 177 176 160 1
w 177 176 -160 1
w 177 -176 160 0
w 177 -176 -160 0
w 178 177 161 0
w 178 177 -161 1
w 178 -177 161 1
w 178 -177 -161 1
w 179 178 162 0
w 179 178 -162 1
w 179 -178 162 0
w 179 -178 -162 1
w 180 179 163 0.20424
w 180 179 -163 0.858601
w 180 -179 163 0.405074
w 180 -179 -163 0.965945
w 181 180 164 1
w 181 180 -164 1
w 181 -180 164 1
w 181 -180 -164 0
w 182 181 165 0.15064
w 182 181 -165 0.831023
w 182 -181 165 0.959638
w 182 -181 -165 0.688679
w 183 182 166 1
w 183 182 -166 0
w 183 -182 166 0
w 183 -182 -166 0
w 184 183 167 0.0496634
w 184 183 -167 0.329772
w 184 -183 167 0.826086
w 184 -183 -167 0.38405
w 185 184 168 0
w 185 184 -168 0
w 185 -184 168 1
w 185 -184 -168 0
w 186 185 169 0.773019
w 186 185 -169 0.227474
w 186 -185 169 0.427506
w 186 -185 -169 0.178092
w 187 186 170 1
w 187 186 -170 0
w 187 -186 170 1
w 187 -186 -170 0
w 188 171 0.761917
w 188 -171 0.246517
w 189 188 172 0.721555
w 189 188 -172 0.935196
w 189 -188 172 0.200648
w 189 -188 -172 0.697232
w 190 189 173 1
w 190 189 -173 1
w 190 -189 173 0
w 190 -189 -173 0
w 191 190 174 0.758782
w 191 190 -174 0.241083
w 191 -190 174 0.0610763
w 191 -190 -174 0.895919
w 192 191 175 1
w 192 191 -175 1
w 192 -191 175 0
w 192 -191 -175 1
w 193 192 176 0
w 193 192 -176 0
w 193 -192 176 1
w 193 -192 -176 1
w 194 193 177 0.452872
w 194 193 -177 0.0099079
w 194 -193 177 0.812851
w 194 -193 -177 0.21479
w 195 194 178 0
w 195 194 -178 0
w 195 -194 178 1
w 195 -194 -178 1
w 196 195 179 0.371775
w 196 195 -179 0.557953
w 196 -195 179 0.165341
w 196 -195 -179 0.304471
w 197 196 180 1
w 197 196 -180 0
w 197 -196 180 0
w 197 -196 -180 1
w 198 197 181 0.11193
w 198 197 -181 0.189209
w 198 -197 181 0.878324
w 198 -197 -181 0.136696
w 199 198 182 1
w 199 198 -182 0
w 199 -198 182 1
w 199 -198 -182 0
w 200 199 183 0.0226422
w 200 199 -183 0.817867
w 200 -199 183 0.512907
w 200 -199 -183 0.835494
w 201 200 184 0
w 201 200 -184 1
w 201 -200 184 0
w 201 -200 -184 1
w 202 201 185 1
w 202 201 -185 1
w 202 -201 185 0
w 202 -201 -185 1
w 203 202 186 0.108951
w 203 202 -186 0.794796
w 203 -202 186 0.70045
w 203 -202 -186 0.765019
w 204 203 187 0.659621
w 204 203 -187 0.876949
w 204 -203 187 0.0719569
w 204 -203 -187 0.537946
w 205 188 0
w 205 -188 1
w 206 205 189 0.602612
w 206 205 -189 0.251291
w 206 -205 189 0.92789
w 206 -205 -189 0.105612
w 207 206 190 1
w 207 206 -190 0
w 207 -206 190 1
w 207 -206 -190 1
w 208 207 191 0
w 208 207 -191 1
w 208 -207 191 1
w 208 -207 -191 0
w 209 208 192 0
w 209 208 -192 0
w 209 -208 192 1
w 209 -208 -192 1
w 210 209 193 0
w 210 209 -193 0
w 210 -209 193 1
w 210 -209 -193 1
w 211 210 194 0.0757519
w 211 210 -194 0.867417
w 211 -210 194 0.216743
w 211 -210 -194 0.0893969
w 212 211 195 0
w 212 211 -195 1
w 212 -211 195 1
w 212 -211 -195 1
w 213 212 196 0.453287
w 213 212 -196 0.41614
w 213 -212 196 0.63751
w 213 -212 -196 0.231702
w 214 213 197 0.132366
w 214 213 -197 0.979118
w 214 -213 197 0.152794
w 214 -213 -197 0.763234
w 215 214 198 1
w 215 214 -198 1
w 215 -214 198 1
w 215 -214 -198 0
w 216 215 199 0.359743
w 216 215 -199 0.172225
w 216 -215 199 0.720653
w 216 -215 -199 0.155203
w 217 216 200 0.796405
w 217 216 -200 0.0226204
w 217 -216 200 0.0677652
w 217 -216 -200 0.885802
w 218 217 201 0
w 218 217 -201 0
w 218 -217 201 0
w 218 -217 -201 1
w 219 218 202 0
w 219 218 -202 1
w 219 -218 202 0
w 219 -218 -202 0
w 220 219 203 0
w 220 219 -203 0
w 220 -219 203 1
w 220 -219 -203 1
w 221 220 204 1
w 221 220 -204 0
w 221 -220 204 1
w 221 -220 -204 0
w 222 205 0.950736
w 222 -205 0.354929
w 223 222 206 0.671389
w 223 222 -206 0.510132
w 223 -222 206 0.758975
w 223 -222 -206 0.467794
w 224 223 207 0.82674
w 224 223 -207 0.353596
w 224 -223 207 0.55823
w 224 -223 -207 0.674145
w 225 224 208 0.837858
w 225 224 -208 0.229078
w 225 -224 208 0.30684
w 225 -224 -208 0.645568
w 226 225 209 1
w 226 225 -209 1
w 226 -225 209 1
w 226 -225 -209 0
w 227 226 210 0.442332
w 227 226 -210 0.00919303
w 227 -226 210 0.244417
w 227 -226 -210 0.0250121
w 228 227 211 1
w 228 227 -211 0
w 228 -227 211 0
w 228 -227 -211 1
w 229 228 212 0.0602044
w 229 228 -212 0.104663
w 229 -228 212 0.427669
w 229 -228 -212 0.527999
w 230 229 213 0.25441
w 230 229 -213 0.881595
w 230 -229 213 0.195646
w 230 -229 -213 0.928554
w 231 230 214 0.0335033
w 231 230 -214 0.157632
w 231 -230 214 0.119841
w 231 -230 -214 0.679071
w 232 231 215 1
w 232 231 -215 0
w 232 -231 215 1
w 232 -231 -215 0
w 233 232 216 1
w 233 232 -216 1
w 233 -232 216 1
w 233 -232 -216 0
w 234 233 217 1
w 234 233 -217 0
w 234 -233 217 0
w 234 -233 -217 1
w 235 234 218 0.809008
w 235 234 -218 0.334524
w 235 -234 218 0.751628
w 235 -234 -218 0.236677
w 236 235 219 0.389043
w 236 235 -219 0.491086
w 236 -235 219 0.744117
w 236 -235 -219 0.584688
w 237 236 220 1
w 237 236 -220 0
w 237 -236 220 0
w 237 -236 -220 0
w 238 237 221 0
w 238 237 -221 1
w 238 -237 221 1
w 238 -237 -221 0
w 239 222 0.505354
w 239 -222 0.41277
w 240 239 223 0
w 240 239 -223 0
w 240 -239 223 0
w 240 -239 -223 1
w 241 240 224 0
w 241 240 -224 0
w 241 -240 224 1
w 241 -240 -224 1
w 242 241 225 1
w 242 241 -225 1
w 242 -241 225 0
w 242 -241 -225 1
w 243 242 226 1
w 243 242 -226 0
w 243 -242 226 0
w 243 -242 -226 0
w 244 243 227 0
w 244 243 -227 1
w 244 -243 227 0
w 244 -243 -227 1
w 245 244 228 1
w 245 244 -228 1
w 245 -244 228 0
w 245 -244 -228 1
w 246 245 229 1
w 246 245 -229 1
w 246 -245 229 0
w 246 -245 -229 0
w 247 246 230 0.948543
w 247 246 -230 0.375974
w 247 -246 230 0.0419515
w 247 -246 -230 0.873541
w 248 247 231 0.489078
w 248 247 -231 0.550168
w 248 -247 231 0.594449
w 248 -247 -231 0.798727
w 249 248 232 0.813111
w 249 248 -232 0.852493
w 249 -248 232 0.266194
w 249 -248 -232 0.451414
w 250 249 233 0
w 250 249 -233 0
w 250 -249 233 0
w 250 -249 -233 1
w 251 250 234 0.733488
w 251 250 -234 0.886908
w 251 -250 234 0.924783
w 251 -250 -234 0.871775
w 252 251 235 1
w 252 251 -235 0
w 252 -251 235 1
w 252 -251 -235 1
w 253 252 236 0.950866
w 253 252 -236 0.147343
w 253 -252 236 0.934141
w 253 -252 -236 0.824408
w 254 253 237 0
w 254 253 -237 1
w 254 -253 237 1
w 254 -253 -237 0
w 255 254 238 0.421776
w 255 254 -238 0.0744387
w 255 -254 238 0.256606
w 255 -254 -238 0.87319
w 256 239 0.79135
w 256 -239 0.54018
w 257 256 240 0
w 257 256 -240 0
w 257 -256 240 0
w 257 -256 -240 1
w 258 257 241 1
w 258 257 -241 0
w 258 -257 241 1
w 258 -257 -241 0
w 259 258 242 0
w 259 258 -242 1
w 259 -258 242 0
w 259 -258 -242 1
w 260 259 243 0
w 260 259 -243 1
w 260 -259 243 0
w 260 -259 -243 0
w 261 260 244 0.766984
w 261 260 -244 0.931503
w 261 -260 244 0.756259
w 261 -260 -244 0.18876
w 262 261 245 0
w 262 261 -245 1
w 262 -261 245 0
w 262 -261 -245 0
w 263 262 246 0.832798
w 263 262 -246 0.69612
w 263 -262 246 0.997082
w 263 -262 -246 0.0561185
w 264 263 247 1
w 264 263 -247 0
w 264 -263 247 0
w 264 -263 -247 0
w 265 264 248 0
w 265 264 -248 0
w 265 -264 248 0
w 265 -264 -248 1
w 266 265 249 1
w 266 265 -249 1
w 266 -265 249 1
w 266 -265 -249 0
w 267 266 250 0.232595
w 267 266 -250 0.495781
w 267 -266 250 0.558283
w 267 -266 -250 0.988854
w 268 267 251 0.564225
w 268 267 -251 0.00172006
w 268 -267 251 0.746491
w 268 -267 -251 0.107983
w 269 268 252 0.348621
w 269 268 -252 0.94078
w 269 -268 252 0.502055
w 269 -268 -252 0.345703
w 270 269 253 0.823567
w 270 269 -253 0.624644
w 270 -269 253 0.201121
w 270 -269 -253 0.642247
w 271 270 254 0.630734
w 271 270 -254 0.920935
w 271 -270 254 0.0258704
w 271 -270 -254 0.0571075
w 272 271 255 0.101347
w 272 271 -255 0.627585
w 272 -271 255 0.469044
w 272 -271 -255 0.568095
w 273 256 1
w 273 -256 0
w 274 273 257 0.852163
w 274 273 -257 0.654108
w 274 -273 257 0.789544
w 274 -273 -257 0.536704
w 275 274 258 1
w 275 274 -258 1
w 275 -274 258 0
w 275 -274 -258 0
w 276 275 259 0.267095
w 276 275 -259 0.0992542
w 276 -275 259 0.977519
w 276 -275 -259 0.263994
w 277 276 260 0.602163
w 277 276 -260 0.465115
w 277 -276 260 0.565068
w 277 -276 -260 0.119421
w 278 277 261 1
w 278 277 -261 0
w 278 -277 261 0
w 278 -277 -261 1
w 279 278 262 1
w 279 278 -262 1
w 279 -278 262 1
w 279 -278 -262 0
w 280 279 263 0.615423
w 280 279 -263 0.989086
w 280 -279 263 0.2568
w 280 -279 -263 0.404967
w 281 280 264 0.475132
w 281 280 -264 0.196231
w 281 -280 264 0.808985
w 281 -280 -264 0.801447
w 282 281 265 0.440802
w 282 281 -265 0.0685427
w 282 -281 265 0.892685
w 282 -281 -265 0.418321
w 283 282 266 1
w 283 282 -266 0
w 283 -282 266 0
w 283 -282 -266 0
w 284 283 267 1
w 284 283 -267 1
w 284 -283 267 0
w 284 -283 -267 1
w 285 284 268 0.531835
w 285 284 -268 0.826998
w 285 -284 268 0.411269
w 285 -284 -268 0.346568
w 286 285 269 0.0139609
w 286 285 -269 0.961991
w 286 -285 269 0.953008
w 286 -285 -269 0.270761
w 287 286 270 1
w 287 286 -270 0
w 287 -286 270 0
w 287 -286 -270 1
w 288 287 271 0.35662
w 288 287 -271 0.728585
w 288 -287 271 0.615883
w 288 -287 -271 0.249305
w 289 288 272 0
w 289 288 -272 0
w 289 -288 272 1
w 289 -288 -272 0